Version identifier: 22.1.0.0 | 2022-03-09 | 1a383f8ce
CPXPARAM_Threads                                 1
CPXPARAM_MIP_Strategy_VariableSelect             3
CPXPARAM_TimeLimit                               600
Tried aggregator 1 time.
Reduced MIP has 2720 rows, 10800 columns, and 83019 nonzeros.
Reduced MIP has 6600 binaries, 4200 generals, 0 SOSs, and 0 indicators.
Presolve time = 0.05 sec. (33.71 ticks)
Found incumbent of value 3102.000000 after 0.14 sec. (83.51 ticks)
Probing time = 0.01 sec. (4.62 ticks)
Tried aggregator 1 time.
Detecting symmetries...
Reduced MIP has 2720 rows, 10800 columns, and 83019 nonzeros.
Reduced MIP has 6600 binaries, 4200 generals, 0 SOSs, and 0 indicators.
Presolve time = 0.06 sec. (41.93 ticks)
Probing time = 0.01 sec. (4.62 ticks)
Clique table members: 306.
MIP emphasis: balance optimality and feasibility.
MIP search method: dynamic search.
Parallel mode: none, using 1 thread.
Root relaxation solution time = 4.91 sec. (4674.90 ticks)

        Nodes                                         Cuts/
   Node  Left     Objective  IInf  Best Integer    Best Bound    ItCnt     Gap

*     0+    0                         3102.0000        0.0000           100.00%
      0     0        0.0000  2461     3102.0000        0.0000    10863  100.00%
*     0+    0                          529.0000        0.0000           100.00%
*     0+    0                          454.0000        0.0000           100.00%
*     0+    0                          453.0000        0.0000           100.00%
*     0+    0                          428.0000        0.0000           100.00%
*     0+    0                          333.0000        0.0000           100.00%
      0     0  -1.00000e+75     0      333.0000        0.0000    10863  100.00%
Detecting symmetries...
      0     2        0.0000  1247      333.0000        0.0000    10863  100.00%
Elapsed time = 31.01 sec. (29986.53 ticks, tree = 0.01 MB, solutions = 6)
      1     3        0.0000  2205      333.0000        0.0000    28799  100.00%
      2     4        0.0000  2222      333.0000        0.0000    38959  100.00%
      3     5        0.0000  2336      333.0000        0.0000    49633  100.00%
      4     6        0.0000  2237      333.0000        0.0000    49679  100.00%
      5     7        0.0000  2247      333.0000        0.0000    50016  100.00%
      6     8        0.0000  2224      333.0000        0.0000    50062  100.00%
      7     9        0.0000  2211      333.0000        0.0000    60700  100.00%
      8    10        0.0000  2379      333.0000        0.0000    64135  100.00%
      9    11       -0.0000  2257      333.0000        0.0000    64565  100.00%
     10    12        0.0000  2384      333.0000        0.0000    69056  100.00%
Elapsed time = 63.56 sec. (61965.89 ticks, tree = 0.14 MB, solutions = 6)
     12    14        0.0000  2291      333.0000        0.0000    70086  100.00%
     13    15        0.0000  2265      333.0000        0.0000    70123  100.00%
     15    17       -0.0000  2275      333.0000        0.0000    71306  100.00%
     16    18        0.0000  2339      333.0000        0.0000    74070  100.00%
     18    20        0.0000  2494      333.0000        0.0000    75082  100.00%
     20    22        0.0000  2362      333.0000        0.0000    77521  100.00%
     21    23       -0.0000  2287      333.0000        0.0000    77529  100.00%
     22    24        0.0000  2381      333.0000        0.0000    80068  100.00%
     24    26        0.0000  2388      333.0000        0.0000    81196  100.00%
     26    28        0.0000  2277      333.0000        0.0000    81732  100.00%
Elapsed time = 80.09 sec. (79120.34 ticks, tree = 0.55 MB, solutions = 6)
     27    29        0.0000  2303      333.0000        0.0000    83336  100.00%
     29    31        0.0000  2382      333.0000        0.0000    84880  100.00%
     31    33        0.0000  2371      333.0000        0.0000    86056  100.00%
     33    35       -0.0000  2374      333.0000        0.0000    88129  100.00%
     35    37        0.0000  2349      333.0000        0.0000    90549  100.00%
     37    39       -0.0000  2349      333.0000        0.0000    91668  100.00%
     38    40        0.0000  2309      333.0000        0.0000    91669  100.00%
     39    41        0.0000  2580      333.0000        0.0000    95478  100.00%
     40    42        0.0000  2309      333.0000        0.0000    95501  100.00%
     42    44        0.0000  2316      333.0000        0.0000    97137  100.00%
Elapsed time = 102.24 sec. (101276.06 ticks, tree = 0.94 MB, solutions = 6)
     43    45        0.0000  2377      333.0000        0.0000    98756  100.00%
     45    47        0.0000  2362      333.0000        0.0000   100176  100.00%
     47    49        0.0000  2369      333.0000        0.0000   103937  100.00%
     49    51       -0.0000  2419      333.0000        0.0000   104616  100.00%
     51    53        0.0000  2337      333.0000        0.0000   105337  100.00%
     53    55        0.0000  2356      333.0000        0.0000   107034  100.00%
     55    57        0.0000  2385      333.0000        0.0000   108735  100.00%
     57    59        0.0000  2367      333.0000        0.0000   110548  100.00%
     59    61        0.0000  2371      333.0000        0.0000   111672  100.00%
     61    63        0.0000  2379      333.0000        0.0000   114468  100.00%
Elapsed time = 114.18 sec. (113544.82 ticks, tree = 1.37 MB, solutions = 6)
     63    65       -0.0000  2248      333.0000        0.0000   115691  100.00%
     64    66        0.0000  2392      333.0000        0.0000   117333  100.00%
     66    68        0.0000  2304      333.0000        0.0000   118546  100.00%
     68    70        0.0000  2263      333.0000        0.0000   121060  100.00%
     70    72        0.0000  2262      333.0000        0.0000   122321  100.00%
     72    74        0.0000  2232      333.0000        0.0000   126448  100.00%
     74    76        0.0000  2219      333.0000        0.0000   129676  100.00%
     75    77        0.0000  2221      333.0000        0.0000   129686  100.00%
     76    78        0.0000  2194      333.0000        0.0000   133103  100.00%
     77    79       -0.0000  2215      333.0000        0.0000   136737  100.00%
Elapsed time = 126.71 sec. (126452.32 ticks, tree = 1.76 MB, solutions = 6)
     79    81        0.0000  2238      333.0000        0.0000   139094  100.00%
     81    83        0.0000  2249      333.0000        0.0000   143498  100.00%
     83    85        0.0000  2212      333.0000        0.0000   144791  100.00%
     85    87        0.0000  2301      333.0000        0.0000   148272  100.00%
     87    89       -0.0000  2171      333.0000        0.0000   149955  100.00%
     88    90       -0.0000  2118      333.0000        0.0000   154068  100.00%
     89    91        0.0000  2120      333.0000        0.0000   154236  100.00%
     90    92        0.0000  2089      333.0000        0.0000   157111  100.00%
     91    93        0.0000  2090      333.0000        0.0000   158773  100.00%
     92    94       -0.0000  2279      333.0000        0.0000   161636  100.00%
Elapsed time = 139.82 sec. (140231.72 ticks, tree = 2.12 MB, solutions = 6)
     94    96        0.0000  2101      333.0000        0.0000   162622  100.00%
     96    98        0.0000  2085      333.0000        0.0000   165684  100.00%
     98   100        0.0000  2102      333.0000        0.0000   168600  100.00%
    100   102       -0.0000  2067      333.0000        0.0000   171361  100.00%
    103   105        0.0000  2066      333.0000        0.0000   172393  100.00%
    105   107        0.0000  2084      333.0000        0.0000   176888  100.00%
    107   109       -0.0000  2067      333.0000        0.0000   178437  100.00%
    109   111        0.0000  2074      333.0000        0.0000   184303  100.00%
    110   112       -0.0000  2062      333.0000        0.0000   184452  100.00%
    112   114        0.0000  2100      333.0000        0.0000   187115  100.00%
Elapsed time = 162.66 sec. (161986.19 ticks, tree = 2.64 MB, solutions = 6)
    114   116       -0.0000  2066      333.0000        0.0000   189920  100.00%
    117   119       -0.0000  2104      333.0000        0.0000   191901  100.00%
    119   121       -0.0000  2088      333.0000        0.0000   194363  100.00%
    122   124        0.0000  2069      333.0000        0.0000   195289  100.00%
    123   125        0.0000  2077      333.0000        0.0000   199548  100.00%
    126   128       -0.0000  2059      333.0000        0.0000   199969  100.00%
    127   129        0.0000  2055      333.0000        0.0000   204377  100.00%
    129   131        0.0000  2020      333.0000        0.0000   207159  100.00%
    131   133        0.0000  2018      333.0000        0.0000   210917  100.00%
    134   136       -0.0000  2016      333.0000        0.0000   211167  100.00%
Elapsed time = 175.39 sec. (174695.10 ticks, tree = 3.19 MB, solutions = 6)
    136   138       -0.0000  2043      333.0000        0.0000   214242  100.00%
    138   140        0.0000  2017      333.0000        0.0000   218186  100.00%
    139   141       -0.0000  2055      333.0000        0.0000   222117  100.00%
    140   142       -0.0000  2027      333.0000        0.0000   227198  100.00%
    143   145       -0.0000  2029      333.0000        0.0000   236282  100.00%
    146   148        0.0000  2017      333.0000        0.0000   237500  100.00%
    147   149        0.0000  2007      333.0000        0.0000   242567  100.00%
    149   151       -0.0000  1941      333.0000        0.0000   245844  100.00%
    152   154       -0.0000  1940      333.0000        0.0000   247390  100.00%
    154   156        0.0000  1988      333.0000        0.0000   252680  100.00%
Elapsed time = 189.92 sec. (188867.75 ticks, tree = 3.68 MB, solutions = 6)
    156   158        0.0000  1998      333.0000        0.0000   254237  100.00%
    158   160       -0.0000  1987      333.0000        0.0000   262093  100.00%
    160   162        0.0000  1967      333.0000        0.0000   263051  100.00%
    162   164        0.0000  1948      333.0000        0.0000   266508  100.00%
    165   167       -0.0000  1994      333.0000        0.0000   272432  100.00%
    167   169        0.0000  1940      333.0000        0.0000   273583  100.00%
    169   171        0.0000  1985      333.0000        0.0000   278243  100.00%
    171   173       -0.0000  1986      333.0000        0.0000   279644  100.00%
    173   175       -0.0000  1978      333.0000        0.0000   284280  100.00%
    178   180        0.0000  2054      333.0000        0.0000   302812  100.00%
Elapsed time = 207.31 sec. (206074.27 ticks, tree = 4.25 MB, solutions = 6)
    184   186        0.0000  1844      333.0000        0.0000   311187  100.00%
    192   194       -0.0000  1820      333.0000        0.0000   325040  100.00%
    196   198       -0.0000  1420      333.0000        0.0000   358274  100.00%
    204   206        0.0000  1311      333.0000        0.0000   374435  100.00%
    206   208        0.0000   965      333.0000        0.0000   391051  100.00%
    211   213        0.0000   796      333.0000        0.0000   406172  100.00%
    215   217        0.0000   680      333.0000        0.0000   416571  100.00%
    218   220        0.0000   746      333.0000        0.0000   433493  100.00%
    221   223        0.0000   536      333.0000        0.0000   446405  100.00%
    226   228        0.0000   320      333.0000        0.0000   459343  100.00%
Elapsed time = 256.57 sec. (252147.22 ticks, tree = 5.42 MB, solutions = 6)
    230   232       -0.0000   204      333.0000        0.0000   468559  100.00%
    232   234       -0.0000   308      333.0000        0.0000   478124  100.00%
    236   238        0.0000   337      333.0000        0.0000   490929  100.00%
    240   242       -0.0000   326      333.0000        0.0000   503834  100.00%
    243   245       -0.0000   280      333.0000        0.0000   517317  100.00%
    248   250       -0.0000   238      333.0000        0.0000   525172  100.00%
    252   254        0.0000   241      333.0000        0.0000   536700  100.00%
    256   258        0.0000   202      333.0000        0.0000   548240  100.00%
    258   260       -0.0000   168      333.0000        0.0000   558687  100.00%
    260   262        0.0000   248      333.0000        0.0000   579587  100.00%
Elapsed time = 304.49 sec. (296602.65 ticks, tree = 6.15 MB, solutions = 6)
    266   268        0.0000   186      333.0000        0.0000   586064  100.00%
    271   273        0.0580   676      333.0000        0.0000   598713  100.00%
    278   280       -0.0000    82      333.0000        0.0000   604616  100.00%
*   282     0      integral     0       -0.0000        0.0000   607613    0.00%

Root node processing (before b&c):
  Real time             =   30.98 sec. (29962.07 ticks)
Sequential b&c:
  Real time             =  290.02 sec. (281546.24 ticks)
                          ------------
Total (root+branch&cut) =  321.00 sec. (311508.31 ticks)
Primal number of violations:	0
Dual number of violations:	0
Status:	Optimal
Time:	321.03
Sequence:
	1
	16
	12
	18
	11
	14
	8
	6
	11
	0
	6
	8
	3
	18
	15
	14
	3
	8
	18
	10
	19
	14
	0
	9
	1
	16
	18
	15
	11
	6
	2
	18
	1
	8
	13
	5
	11
	12
	0
	4
	11
	14
	15
	0
	11
	7
	6
	4
	19
	10
	0
	18
	6
	19
	2
	12
	7
	6
	11
	0
	6
	0
	1
	7
	8
	5
	8
	14
	19
	16
	9
	12
	19
	13
	10
	4
	17
	14
	13
	12
	19
	16
	14
	9
	17
	14
	0
	6
	11
	2
	5
	8
	1
	7
	0
	6
	3
	2
	4
	9
	10
	1
	0
	4
	7
	17
	14
	12
	13
	19
	2
	6
	15
	3
	9
	2
	18
	1
	15
	4
	2
	19
	14
	12
	13
	17
	7
	6
	10
	19
	16
	9
	14
	17
	6
	0
	7
	1
	0
	6
	2
	19
	13
	12
	14
	17
	7
	18
	12
	1
	16
	18
	18
	1
	12
	0
	7
	11
	6
	12
	13
	11
	0
	5
	12
	3
	7
	8
	6
	0
	19
	14
	16
	5
	17
	7
	6
	2
	19
	10
	9
	14
	17
	4
	12
	7
	3
	12
	4
	15
	3
	13
	12
	18
	1
	16
	18
	15
	3
	14
	8
	18
	2
	1
	5
	8
	7
	17
	14
	5
	2
	19
	2
	6
	14
	17
	7
	8
	5
	3
	15
	18
	2
	1
	18
	15
	4
	3
	10
	9
	15
	3
	13
	15
	4
	11
	10
	4
	12
	3
	18
	15
	13
	1
	18
	8
	10
	3
	6
	9
	16
	19
	12
	5
	7
	3
	8
	12
	14
	19
	9
	16
	10
	19
	6
	18
	2
	1
	8
	5
	7
	3
	12
	8
	14
	3
	4
	15
	2
	1
	4
	9
	10
	17
	6
	13
	7
	17
	12
	6
	18
	11
	16
	15
	6
	11
	18
	16
	15
	1
